p edges 224 465
e 2 3
e 2 4
e 2 5
e 2 6
e 2 7
e 2 8
e 2 9
e 2 10
e 2 12
e 2 48
e 2 72
e 2 74
e 3 6
e 3 8
e 3 10
e 3 12
e 4 5
e 4 6
e 4 7
e 4 8
e 4 9
e 4 10
e 4 12
e 4 48
e 4 50
e 4 74
e 4 76
e 5 8
e 5 10
e 5 12
e 6 7
e 6 8
e 6 9
e 6 10
e 6 12
e 6 48
e 6 50
e 6 52
e 6 76
e 6 78
e 7 10
e 7 12
e 8 9
e 8 10
e 8 12
e 8 17
e 8 50
e 8 52
e 8 54
e 8 78
e 8 80
e 9 12
e 10 12
e 10 19
e 10 52
e 10 54
e 10 56
e 10 80
e 10 82
e 12 54
e 12 56
e 12 58
e 12 82
e 12 84
e 13 14
e 13 15
e 13 16
e 13 17
e 13 18
e 13 19
e 13 20
e 13 21
e 13 23
e 14 17
e 14 19
e 14 21
e 14 23
e 15 16
e 15 17
e 15 18
e 15 19
e 15 20
e 15 21
e 15 23
e 15 59
e 15 98
e 16 19
e 16 21
e 16 23
e 17 18
e 17 19
e 17 20
e 17 21
e 17 23
e 17 59
e 17 61
e 17 100
e 18 21
e 18 23
e 19 20
e 19 21
e 19 23
e 19 61
e 19 63
e 19 102
e 20 23
e 21 23
e 21 63
e 21 65
e 21 104
e 23 65
e 23 67
e 23 106
e 24 25
e 24 26
e 24 27
e 24 28
e 24 29
e 24 30
e 24 31
e 24 32
e 24 34
e 24 43
e 24 45
e 24 87
e 24 89
e 24 91
e 25 28
e 25 30
e 25 32
e 25 34
e 26 27
e 26 28
e 26 29
e 26 30
e 26 31
e 26 32
e 26 34
e 26 45
e 26 47
e 26 89
e 26 91
e 26 93
e 27 30
e 27 32
e 27 34
e 28 29
e 28 30
e 28 31
e 28 32
e 28 34
e 28 47
e 28 91
e 28 93
e 28 95
e 29 32
e 29 34
e 30 31
e 30 32
e 30 34
e 30 93
e 30 95
e 30 97
e 31 34
e 32 34
e 32 95
e 32 97
e 34 97
e 37 38
e 37 39
e 37 40
e 37 41
e 37 42
e 37 43
e 37 44
e 37 45
e 37 47
e 38 41
e 38 43
e 38 45
e 38 47
e 39 40
e 39 41
e 39 42
e 39 43
e 39 44
e 39 45
e 39 47
e 39 85
e 40 43
e 40 45
e 40 47
e 41 42
e 41 43
e 41 44
e 41 45
e 41 47
e 41 85
e 41 87
e 42 45
e 42 47
e 43 44
e 43 45
e 43 47
e 43 87
e 43 89
e 44 47
e 45 47
e 45 89
e 45 91
e 47 91
e 47 93
e 48 49
e 48 50
e 48 51
e 48 52
e 48 53
e 48 54
e 48 55
e 48 56
e 48 58
e 48 74
e 48 76
e 49 52
e 49 54
e 49 56
e 49 58
e 50 51
e 50 52
e 50 53
e 50 54
e 50 55
e 50 56
e 50 58
e 50 76
e 50 78
e 51 54
e 51 56
e 51 58
e 52 53
e 52 54
e 52 55
e 52 56
e 52 58
e 52 61
e 52 78
e 52 80
e 53 56
e 53 58
e 54 55
e 54 56
e 54 58
e 54 63
e 54 80
e 54 82
e 55 58
e 56 58
e 56 65
e 56 82
e 56 84
e 58 84
e 59 60
e 59 61
e 59 62
e 59 63
e 59 64
e 59 65
e 59 66
e 59 67
e 59 69
e 59 98
e 59 100
e 60 63
e 60 65
e 60 67
e 60 69
e 61 62
e 61 63
e 61 64
e 61 65
e 61 66
e 61 67
e 61 69
e 61 100
e 61 102
e 62 65
e 62 67
e 62 69
e 63 64
e 63 65
e 63 66
e 63 67
e 63 69
e 63 102
e 63 104
e 64 67
e 64 69
e 65 66
e 65 67
e 65 69
e 65 104
e 65 106
e 66 69
e 67 69
e 67 106
e 67 108
e 69 108
e 69 110
e 72 73
e 72 74
e 72 75
e 72 76
e 72 77
e 72 78
e 72 79
e 72 80
e 72 81
e 72 82
e 72 84
e 73 76
e 73 78
e 73 80
e 73 82
e 73 84
e 74 75
e 74 76
e 74 77
e 74 78
e 74 79
e 74 80
e 74 81
e 74 82
e 74 84
e 75 78
e 75 80
e 75 82
e 75 84
e 76 77
e 76 78
e 76 79
e 76 80
e 76 81
e 76 82
e 76 84
e 77 80
e 77 82
e 77 84
e 78 79
e 78 80
e 78 81
e 78 82
e 78 84
e 79 82
e 79 84
e 80 81
e 80 82
e 80 84
e 81 84
e 82 84
e 85 86
e 85 87
e 85 88
e 85 89
e 85 90
e 85 91
e 85 92
e 85 93
e 85 94
e 85 95
e 85 97
e 86 89
e 86 91
e 86 93
e 86 95
e 86 97
e 87 88
e 87 89
e 87 90
e 87 91
e 87 92
e 87 93
e 87 94
e 87 95
e 87 97
e 88 91
e 88 93
e 88 95
e 88 97
e 89 90
e 89 91
e 89 92
e 89 93
e 89 94
e 89 95
e 89 97
e 89 100
e 90 93
e 90 95
e 90 97
e 91 92
e 91 93
e 91 94
e 91 95
e 91 97
e 91 102
e 92 95
e 92 97
e 93 94
e 93 95
e 93 97
e 93 104
e 94 97
e 95 97
e 95 106
e 98 99
e 98 100
e 98 101
e 98 102
e 98 103
e 98 104
e 98 105
e 98 106
e 98 107
e 98 108
e 98 110
e 99 102
e 99 104
e 99 106
e 99 108
e 99 110
e 100 101
e 100 102
e 100 103
e 100 104
e 100 105
e 100 106
e 100 107
e 100 108
e 100 110
e 101 104
e 101 106
e 101 108
e 101 110
e 102 103
e 102 104
e 102 105
e 102 106
e 102 107
e 102 108
e 102 110
e 103 106
e 103 108
e 103 110
e 104 105
e 104 106
e 104 107
e 104 108
e 104 110
e 105 108
e 105 110
e 106 107
e 106 108
e 106 110
e 107 110
e 108 110
